   -28     1    98   188    20    10
    -7    10    88   178    10    10
    11     3   344   434    10    10
    23    16   219   309    10    10
   -12     8    76   166    10    10
     1    -1   130   220    10    10
     9     9    89   179    10    10
     1     6   127   217    10    10
     0     0    62   152    10    10
    -3    -2   101   191    10    10
    28    -4   194   284    20    10
     4   -20   278   368    20    10
   -13    -7   104   194    20    10
   -13    14   269   359    10    10
    18    21   205   295    10    10
    13    19
     6    23
   -21     3
   -18   -16
    10   -21
   -14    32
